%nprocs=4
%chk=bipyrimidine_PCM.chk
%mem=8192Mb
#b3lyp/gen SCRF=CPCM, SCRF=(solvent=Dichloromethane)

bipyrimidine_PCM

0 1
6        0.749493254     -0.000061824      0.000877709
6       -0.749493254      0.000061840      0.000877720
7       -1.353059012     -1.096543760      0.466481577
6       -2.684915438     -1.083162005      0.467613101
6       -3.416813225     -0.000162330     -0.000478122
6       -2.684648717      1.083030160     -0.467615710
7       -1.352764398      1.096640858     -0.465066621
1       -3.175115306     -1.969109401      0.856312762
1       -4.497817409     -0.000294768     -0.001091873
1       -3.174552960      1.968913981     -0.856832821
7        1.352764393     -1.096640842     -0.465066637
7        1.353059023      1.096543775      0.466481562
6        2.684648711     -1.083030160     -0.467615710
6        2.684915448      1.083162005      0.467613096
1        3.174552938     -1.968913987     -0.856832821
1        3.175115322      1.969109401      0.856312756
6        3.416813225      0.000162320     -0.000478112
1        4.497817409      0.000294741     -0.001091851

H     0
S    3   1.00
     34.0613410              0.60251978D-02
      5.1235746              0.45021094D-01
      1.1646626              0.20189726
S    1   1.00
      0.32723041             1.0000000
S    1   1.00
      0.10307241             1.0000000
P    1   1.00
      0.8000000              1.0000000
****
C     0
S    6   1.00
  13575.3496820              0.22245814352D-03
   2035.2333680              0.17232738252D-02
    463.22562359             0.89255715314D-02
    131.20019598             0.35727984502D-01
     42.853015891            0.11076259931
     15.584185766            0.24295627626
S    2   1.00
      6.2067138508           0.41440263448
      2.5764896527           0.23744968655
S    1   1.00
      0.57696339419          1.0000000
S    1   1.00
      0.22972831358          1.0000000
S    1   1.00
      0.95164440028D-01      1.0000000
P    4   1.00
     34.697232244            0.53333657805D-02
      7.9582622826           0.35864109092D-01
      2.3780826883           0.14215873329
      0.81433208183          0.34270471845
P    1   1.00
      0.28887547253           .46445822433
P    1   1.00
      0.10056823671           .24955789874
D    1   1.00
      1.09700000             1.0000000
D    1   1.00
      0.31800000             1.0000000
F    1   1.00
      0.76100000             1.0000000
****
N     0
S    6   1.00
  19730.8006470              0.21887984991D-03
   2957.8958745              0.16960708803D-02
    673.22133595             0.87954603538D-02
    190.68249494             0.35359382605D-01
     62.295441898            0.11095789217
     22.654161182            0.24982972552
S    2   1.00
      8.9791477428           0.40623896148
      3.6863002370           0.24338217176
S    1   1.00
      0.84660076805          1.0000000
S    1   1.00
      0.33647133771          1.0000000
S    1   1.00
      0.13647653675          1.0000000
P    4   1.00
     49.200380510            0.55552416751D-02
     11.346790537            0.38052379723D-01
      3.4273972411           0.14953671029
      1.1785525134           0.34949305230
P    1   1.00
      0.41642204972           .45843153697
P    1   1.00
      0.14260826011           .24428771672
D    1   1.00
      1.65400000             1.0000000
D    1   1.00
      0.46900000             1.0000000
F    1   1.00
      1.09300000             1.0000000
****
