$rungauss
%nprocs=8
%chk=psh132_asym_wB97XD_Def2SVP.chk
%mem=8192Mb
#wB97XD/gen Integral(UltraFine) pseudo=read opt=tight Sym=None

psh132_asym_wB97XD_Def2SVP

2 1
42       5.686800000     -0.353500000     20.716500000
42       6.534700000      2.090500000     19.013400000
42       5.137800000      1.324300000     13.035500000
42       2.824600000     -0.730100000     12.769600000
33       6.688500000     -0.509400000     17.954200000
51       4.409400000      0.645700000     18.766100000
29       4.285600000     -0.828600000     16.738200000
29       2.519300000      1.062700000     17.176500000
8        4.410800000      3.795900000     20.571300000
8        4.754000000     -3.254100000     19.983300000
8        8.640500000     -1.412300000     20.624100000
8        5.304300000      3.400500000     16.465100000
7        3.419900000     -2.564200000     17.196100000
6        7.586400000     -1.020700000     20.608600000
6        5.164400000      3.123000000     19.989600000
7        2.142800000      3.003200000     17.217900000
6        5.107100000     -2.191600000     20.182400000
6        5.722300000      2.858800000     17.382800000
6        5.405800000     -1.081500000     22.860800000
1        5.624000000     -1.978800000     23.084400000
6        2.000300000      4.132300000     17.158800000
6        8.041900000      3.240800000     20.313100000
1        7.753800000      3.620100000     21.134800000
8        0.449600000      1.478800000     13.276600000
8        7.456200000      1.366700000     14.925300000
6        6.268200000      0.028500000     22.926100000
1        7.178400000      0.004200000     23.198300000
6        7.982700000      3.868100000     19.050100000
1        7.670700000      4.748200000     18.877300000
6        3.041800000     -3.611500000     17.417000000
8        6.921500000     -0.423900000     11.155100000
6        5.573800000      1.165200000     22.527900000
1        5.921500000      2.049800000     22.492500000
6        8.603000000      1.959700000     20.148200000
1        8.780200000      1.339700000     20.844600000
6        3.675000000      3.246500000     12.981100000
1        2.960200000      3.406300000     13.588000000
6        4.143200000     -0.610200000     22.391000000
1        3.369100000     -1.141500000     22.247900000
6        3.488300000      2.583200000     11.749200000
1        2.716600000      2.158800000     11.390200000
6        6.545200000      1.302000000     14.253400000
6        8.464100000      2.957600000     18.092000000
1        8.522500000      3.110500000     17.157100000
6        1.278900000      0.720400000     13.167700000
6        8.854700000      1.752500000     18.782600000
1        9.215600000      0.967700000     18.389100000
6        4.240500000      0.766000000     22.182600000
1        3.550100000      1.336200000     21.865900000
6        6.143600000      0.095000000     11.851900000
6        4.778000000      2.735200000     11.201700000
1        4.983200000      2.496000000     10.305900000
8        1.404100000     -2.691500000     14.779100000
7        0.973300000     -0.266100000     17.183700000
6        1.807200000      5.554100000     17.043700000
1        1.027700000      5.733400000     16.477300000
1        2.603200000      5.960500000     16.642500000
1        1.658600000      5.935400000     17.934100000
6        5.005700000      3.653300000     13.248600000
1        5.337600000      4.085700000     14.025400000
6        5.740900000      3.265500000     12.079000000
1        6.676200000      3.350400000     11.930500000
6        1.932100000     -0.556900000     10.651100000
1        1.385300000      0.190100000     10.436800000
6        1.514600000     -1.879900000     11.229700000
1        0.624300000     -2.166300000     11.400200000
6        3.415000000     -0.701400000     10.486300000
1        4.002200000     -0.063600000     10.096600000
6        2.600600000     -4.947700000     17.774700000
1        2.903500000     -5.586100000     17.095900000
1        1.620900000     -4.966100000     17.825100000
1        2.975500000     -5.194700000     18.645900000
6        1.987100000     -1.916000000     14.057400000
6       -0.770300000     -2.203000000     17.053000000
1       -1.124700000     -2.278200000     16.142700000
1       -1.507600000     -2.041200000     17.678400000
1       -0.314000000     -3.036100000     17.295700000
33       3.402400000      0.652000000     14.912800000
51       4.938400000     -1.281500000     14.186500000
6        3.780200000     -1.948300000     11.015100000
1        4.669700000     -2.283500000     11.044100000
6        2.687400000     -2.613600000     11.478600000
1        2.712900000     -3.459600000     11.909100000
6        0.172400000     -1.096800000     17.118400000

H     0
S    3   1.00
     34.0613410              0.60251978D-02
      5.1235746              0.45021094D-01
      1.1646626              0.20189726
S    1   1.00
      0.32723041             1.0000000
S    1   1.00
      0.10307241             1.0000000
P    1   1.00
      0.8000000              1.0000000
****
C     0
S    6   1.00
  13575.3496820              0.22245814352D-03
   2035.2333680              0.17232738252D-02
    463.22562359             0.89255715314D-02
    131.20019598             0.35727984502D-01
     42.853015891            0.11076259931
     15.584185766            0.24295627626
S    2   1.00
      6.2067138508           0.41440263448
      2.5764896527           0.23744968655
S    1   1.00
      0.57696339419          1.0000000
S    1   1.00
      0.22972831358          1.0000000
S    1   1.00
      0.95164440028D-01      1.0000000
P    4   1.00
     34.697232244            0.53333657805D-02
      7.9582622826           0.35864109092D-01
      2.3780826883           0.14215873329
      0.81433208183          0.34270471845
P    1   1.00
      0.28887547253           .46445822433
P    1   1.00
      0.10056823671           .24955789874
D    1   1.00
      1.09700000             1.0000000
D    1   1.00
      0.31800000             1.0000000
F    1   1.00
      0.76100000             1.0000000
****
N     0
S    6   1.00
  19730.8006470              0.21887984991D-03
   2957.8958745              0.16960708803D-02
    673.22133595             0.87954603538D-02
    190.68249494             0.35359382605D-01
     62.295441898            0.11095789217
     22.654161182            0.24982972552
S    2   1.00
      8.9791477428           0.40623896148
      3.6863002370           0.24338217176
S    1   1.00
      0.84660076805          1.0000000
S    1   1.00
      0.33647133771          1.0000000
S    1   1.00
      0.13647653675          1.0000000
P    4   1.00
     49.200380510            0.55552416751D-02
     11.346790537            0.38052379723D-01
      3.4273972411           0.14953671029
      1.1785525134           0.34949305230
P    1   1.00
      0.41642204972           .45843153697
P    1   1.00
      0.14260826011           .24428771672
D    1   1.00
      1.65400000             1.0000000
D    1   1.00
      0.46900000             1.0000000
F    1   1.00
      1.09300000             1.0000000
****
O     0
S    6   1.00
  27032.3826310              0.21726302465D-03
   4052.3871392              0.16838662199D-02
    922.32722710             0.87395616265D-02
    261.24070989             0.35239968808D-01
     85.354641351            0.11153519115
     31.035035245            0.25588953961
S    2   1.00
     12.260860728            0.39768730901
      4.9987076005           0.24627849430
S    1   1.00
      1.1703108158           1.0000000
S    1   1.00
      0.46474740994          1.0000000
S    1   1.00
      0.18504536357          1.0000000
P    4   1.00
     63.274954801            0.60685103418D-02
     14.627049379            0.41912575824D-01
      4.4501223456           0.16153841088
      1.5275799647           0.35706951311
P    1   1.00
      0.52935117943           .44794207502
P    1   1.00
      0.17478421270           .24446069663
D    1   1.00
      2.31400000             1.0000000
D    1   1.00
      0.64500000             1.0000000
F    1   1.00
      1.42800000             1.0000000
****
Cu     0
S    8   1.00
 377518.7992300              0.22811766128D-03
  56589.9843110              0.17688035931D-02
  12878.7117060              0.91993460227D-02
   3645.3752143              0.37411016434D-01
   1187.0072945              0.12189873737
    426.46421902             0.28983900714
    165.70660164             0.41531872174
     65.598942707            0.21905799287
S    4   1.00
    414.41265811            -0.24682525053D-01
    128.32056039            -0.11716827406
     20.622089750            0.55301315941
      8.7821226045           0.52242718609
S    2   1.00
     13.741372006           -0.22736061821
      2.2431246833           0.71761210873
S    1   1.00
      0.89370549079          1.0000000
S    1   1.00
      0.10836699534          1.0000000
S    1   1.00
      0.38806178058D-01      1.0000000
P    6   1.00
   2034.7596692              0.23524822298D-02
    481.90468106             0.19134070751D-01
    154.67482963             0.90171105278D-01
     57.740576969            0.26063284735
     23.099052811            0.42093485770
      9.3882478591           0.24344615121
P    3   1.00
     37.596171210           -0.28991094530D-01
      5.1240690810           0.54919083831
      2.0119996085           0.93793330488
P    1   1.00
      0.73860686002          1.0000000
P    1   1.00
      0.1550650              1.0000000
D    4   1.00
     74.129460637            0.14363216676D-01
     21.359842587            0.86628177096D-01
      7.4995240537           0.25631430541
      2.7601394169           0.40374062368
D    1   1.00
      0.95362061236           .39427042447
D    1   1.00
      0.28420862520           .23091146816
D    1   1.00
      0.0850000              1.0000000
F    1   1.00
      2.2330000              1.0000000
****
As     0
S    8   1.00
 498032.4215800              0.22740196900D-03
  74656.8687430              0.17632816413D-02
  16990.9600040              0.91728040381D-02
   4809.6200321              0.37337829344D-01
   1566.2887055              0.12199536117
    563.21360499             0.29137475324
    219.11179978             0.42326351479
     86.866061030            0.22921464278
S    4   1.00
    538.19512479            -0.25254197297D-01
    167.14850224            -0.11915461115
     27.605517159            0.54628495980
     11.947858521            0.53001520976
S    2   1.00
     18.538023133           -0.23479188136
      3.2018985739           0.69167053428
S    1   1.00
      1.4356522077           1.0000000
S    1   1.00
      0.31837805200          1.0000000
S    1   1.00
      0.11622632186          1.0000000
P    6   1.00
   2678.9421546              0.23318955287D-02
    634.61765840             0.19042149977D-01
    203.93967606             0.90229744913D-01
     76.323890369            0.26169037693
     30.664124943            0.41857168155
     12.505056732            0.23447830190
P    4   1.00
     49.256229549           -0.21235539870D-01
      7.7274891466           0.30470206668
      3.5410493476           0.52888373107
      1.6985585501           0.37272250955
P    1   1.00
      0.76848071044          1.0000000
P    1   1.00
      0.30050823260          1.0000000
P    1   1.00
      0.98190639437D-01      1.0000000
D    5   1.00
    135.33289305             0.99291144106D-02
     39.860212744            0.66568843496D-01
     14.446428359            0.22275768307
      5.6432900356           0.40309224382
      2.1668188623           0.41671667946
D    1   1.00
      0.76514970569           .18935502288
D    1   1.00
      0.42434653             1.0000000
D    1   1.00
      0.16331527             1.0000000
F    1   1.00
      0.43271941             1.0000000
****
Mo     0
S    2   1.00
     14.000000000           -0.22490043406
     12.500000000            0.33151248555
S    1   1.00
      4.0921501803           1.0000000
S    1   1.00
      0.97053602586          1.0000000
S    1   1.00
      0.44217620170          1.0000000
S    1   1.00
      0.92915024334D-01      1.0000000
S    1   1.00
      0.35016314389D-01      1.0000000
P    4   1.00
      8.8931117915           0.69994449475D-01
      5.4689112270          -0.23547141883
      1.3548473007           0.46315460007
      0.65494867461          0.48820184710
P    1   1.00
      0.30428197472          1.0000000
P    1   1.00
      0.10000000000          1.0000000
P    1   1.00
      0.33000000000D-01      1.0000000
D    3   1.00
      5.0044445497          -0.21587364862D-01
      1.7736823324           0.20958680086
      0.76950591696          0.43730880599
D    1   1.00
      0.31530878939          1.0000000
D    1   1.00
      0.11754374390          1.0000000
F    1   1.00
      0.6554500              1.0000000
****
Sb     0
S    4   1.00
   1612.4199933              0.28540380783D-03
    238.84452097             0.13393778746D-02
     23.998118809           -0.49388154574D-01
     15.193124213            0.43392227254
S    2   1.00
     11.736409733            0.92125519965
      6.5259774794           0.79235280226
S    1   1.00
      2.0247451872           1.0000000
S    1   1.00
      0.97113418587          1.0000000
S    1   1.00
      0.24254333998          1.0000000
S    1   1.00
      0.92206608177D-01      1.0000000
P    3   1.00
    215.68393354             0.26051823221D-03
     16.374479088            0.73728000195D-01
      9.7216283345          -0.27230028128
P    3   1.00
      2.7982643154           0.46472692374
      1.4711045033           0.50364242075
      0.75165385301          0.18706666294
P    1   1.00
      0.33168699849          1.0000000
P    1   1.00
      0.13931606366          1.0000000
P    1   1.00
      0.56399307526D-01      1.0000000
D    6   1.00
    115.90312253             0.53140915051D-03
     30.474233720            0.59411139166D-02
     18.228418239           -0.10563706947D-01
      4.3291456646           0.20348177341
      2.1294818496           0.42748378928
      0.99682636692          0.38539560809
D    1   1.00
      0.43347239863          1.0000000
D    1   1.00
      0.14000000000          1.0000000
F    1   1.00
      1.1000000              1.0000000
F    1   1.00
      0.32369706             1.0000000
****

MO     0
MO-ECP     3     28
f potential
  2
2      9.4500000            -24.80517707
2      4.7200000             -4.15378155
s-f potential
  4
2      9.7145938            180.10310850
2      4.6805004             24.99722791
2      9.4500000             24.80517707
2      4.7200000              4.15378155
p-f potential
  4
2      8.1421366            123.77275231
2      4.6259863             19.53022800
2      9.4500000             24.80517707
2      4.7200000              4.15378155
d-f potential
  4
2      6.6184148             48.37502229
2      3.2487516              8.89205274
2      9.4500000             24.80517707
2      4.7200000              4.15378155
SB     0
SB-ECP     3     28
f potential
  2
2     14.44497800           -15.36680100
2     14.44929500           -20.29613800
s-f potential
  4
2     16.33086500           281.07158100
2      8.55654200            61.71660400
2     14.44497800            15.36680100
2     14.44929500            20.29613800
p-f potential
  6
2     14.47033700            67.45738000
2     13.81619400           134.93350300
2      8.42492400            14.71634400
2      8.09272800            29.51851200
2     14.44497800            15.36680100
2     14.44929500            20.29613800
d-f potential
  6
2     14.88633100            35.44781500
2     15.14631900            53.14346600
2      5.90826700             9.17922300
2      5.59432200            13.24025300
2     14.44497800            15.36680100
2     14.44929500            20.29613800
