%nprocs=4
%chk=bipyrimidine_PCM.chk
%mem=8192Mb
#b3lyp/gen SCRF=CPCM, SCRF=(solvent=Dichloromethane)

bipyrimidine_PCM

0 1
6        0.749493254     -0.000061824      0.000877709
6       -0.749493254      0.000061840      0.000877720
7       -1.353059012     -1.096543760      0.466481577
6       -2.684915438     -1.083162005      0.467613101
6       -3.416813225     -0.000162330     -0.000478122
6       -2.684648717      1.083030160     -0.467615710
7       -1.352764398      1.096640858     -0.465066621
1       -3.175115306     -1.969109401      0.856312762
1       -4.497817409     -0.000294768     -0.001091873
1       -3.174552960      1.968913981     -0.856832821
7        1.352764393     -1.096640842     -0.465066637
7        1.353059023      1.096543775      0.466481562
6        2.684648711     -1.083030160     -0.467615710
6        2.684915448      1.083162005      0.467613096
1        3.174552938     -1.968913987     -0.856832821
1        3.175115322      1.969109401      0.856312756
6        3.416813225      0.000162320     -0.000478112
1        4.497817409      0.000294741     -0.001091851

H     0
S    3   1.00
     13.0107010              0.19682158D-01
      1.9622572              0.13796524
      0.44453796             0.47831935
S    1   1.00
      0.12194962             1.0000000
P    1   1.00
      0.8000000              1.0000000
****
C     0
S    5   1.00
   1238.4016938              0.54568832082D-02
    186.29004992             0.40638409211D-01
     42.251176346            0.18025593888
     11.676557932            0.46315121755
      3.5930506482           0.44087173314
S    1   1.00
      0.40245147363          1.0000000
S    1   1.00
      0.13090182668          1.0000000
P    3   1.00
      9.4680970621           0.38387871728D-01
      2.0103545142           0.21117025112
      0.54771004707          0.51328172114
P    1   1.00
      0.15268613795          1.0000000
D    1   1.00
      0.8000000              1.0000000
****
N     0
S    5   1.00
   1712.8415853             -0.53934125305D-02
    257.64812677            -0.40221581118D-01
     58.458245853           -0.17931144990
     16.198367905           -0.46376317823
      5.0052600809          -0.44171422662
S    1   1.00
      0.58731856571          1.0000000
S    1   1.00
      0.18764592253          1.0000000
P    3   1.00
     13.571470233           -0.40072398852D-01
      2.9257372874          -0.21807045028
      0.79927750754         -0.51294466049
P    1   1.00
      0.21954348034          1.0000000
D    1   1.00
      1.0000000              1.0000000
****



