$rungauss
%nprocs=8
%chk=H2O_wB97XD_Def2SVP.chk
%mem=8192Mb
#wB97XD/gen 

water

0 1
8       -2.672659392      3.629844743     -0.305147661
1       -2.672659392      4.389181743      0.290895339
1       -2.672659392      2.870507743      0.290895339

H     0
S    3   1.00
     34.0613410              0.60251978D-02
      5.1235746              0.45021094D-01
      1.1646626              0.20189726
S    1   1.00
      0.32723041             1.0000000
S    1   1.00
      0.10307241             1.0000000
P    1   1.00
      0.8000000              1.0000000
****
O     0
S    6   1.00
  27032.3826310              0.21726302465D-03
   4052.3871392              0.16838662199D-02
    922.32722710             0.87395616265D-02
    261.24070989             0.35239968808D-01
     85.354641351            0.11153519115
     31.035035245            0.25588953961
S    2   1.00
     12.260860728            0.39768730901
      4.9987076005           0.24627849430
S    1   1.00
      1.1703108158           1.0000000
S    1   1.00
      0.46474740994          1.0000000
S    1   1.00
      0.18504536357          1.0000000
P    4   1.00
     63.274954801            0.60685103418D-02
     14.627049379            0.41912575824D-01
      4.4501223456           0.16153841088
      1.5275799647           0.35706951311
P    1   1.00
      0.52935117943           .44794207502
P    1   1.00
      0.17478421270           .24446069663
D    1   1.00
      2.31400000             1.0000000
D    1   1.00
      0.64500000             1.0000000
F    1   1.00
      1.42800000             1.0000000
****
