$rungauss
%nprocs=8
%chk=H2O_wB97XD_Def2SVP.chk
%mem=8192Mb
#wB97XD/gen 

water

0 1
8       -2.672659392      3.629844743     -0.305147661
1       -2.672659392      4.389181743      0.290895339
1       -2.672659392      2.870507743      0.290895339





